NAME: tsp_40
TYPE: TSP
DIMENSION: 40
EDGE_WEIGHT_TYPE: EUC_2D
NODE_COORD_SECTION
1 28 151
2 50 128
3 90 139
4 88 189
5 98 167
6 56 36
7 58 223
8 71 13
9 88 64
10 44 75
11 22 220
12 35 138
13 57 284
14 86 20
15 35 341
16 5 310
17 56 378
18 59 283
19 98 233
20 20 253
21 66 77
22 35 212
23 55 114
24 90 35
25 9 308
26 95 197
27 15 19
28 20 43
29 39 196
30 47 150
31 6 294
32 28 25
33 30 379
34 45 61
35 36 345
36 29 257
37 91 330
38 27 115
39 21 215
40 62 120
EOF
